NAME: Random_95_2
ELLAPSED_TIME_(ms): 2630
TOUR_SIZE: 2187
TOUR_SECTION
0
94
20
81
88
60
70
13
9
21
56
51
33
53
25
65
18
59
52
26
15
87
36
27
44
3
8
68
80
47
89
62
61
19
92
72
71
30
1
48
73
90
57
83
23
40
24
37
14
7
82
64
42
79
46
5
67
22
34
31
55
17
11
45
28
49
12
54
29
6
10
74
2
76
84
35
93
77
32
38
86
63
50
85
16
58
78
4
43
66
41
69
91
39
75
0
EOF
